
Gurobi 12.0.2 (win64) logging started Tue Jun 10 18:59:30 2025

Set parameter LogFile to value "C:\Ioana\_uni\honours\slp\algorithm\Main_files\results\others\glucogenesis tasks\Task_001_Sample003_irr_gurobi.log"
Gurobi Optimizer version 12.0.2 build v12.0.2rc0 (win64 - Windows 11.0 (26100.2))

CPU model: Intel(R) Core(TM) Ultra 5 125H, instruction set [SSE2|AVX|AVX2]
Thread count: 14 physical cores, 18 logical processors, using up to 18 threads

Non-default parameters:
TimeLimit  2200

Optimize a model with 47226 rows, 34494 columns and 146681 nonzeros
Model fingerprint: 0x4328881f
Variable types: 17249 continuous, 17245 integer (17245 binary)
Coefficient statistics:
  Matrix range     [1e-04, 8e+04]
  Objective range  [2e-04, 9e-01]
  Bounds range     [1e+00, 1e+03]
  RHS range        [1e+00, 1e+00]
Found heuristic solution: objective 0.8771930
Presolve removed 47226 rows and 34494 columns
Presolve time: 0.29s
Presolve: All rows and columns removed

Explored 0 nodes (0 simplex iterations) in 0.31 seconds (0.35 work units)
Thread count was 1 (of 18 available processors)

Solution count 1: 0.877193 

Optimal solution found (tolerance 1.00e-04)
Best objective 8.771929824561e-01, best bound 8.771929824561e-01, gap 0.0000%

Gurobi 12.0.2 (win64) logging started Tue Jun 10 19:56:37 2025

Set parameter LogFile to value "C:\Ioana\_uni\honours\slp\algorithm\Main_files\results\others\glucogenesis tasks\Task_001_Sample003_irr_gurobi.log"
Gurobi Optimizer version 12.0.2 build v12.0.2rc0 (win64 - Windows 11.0 (26100.2))

CPU model: Intel(R) Core(TM) Ultra 5 125H, instruction set [SSE2|AVX|AVX2]
Thread count: 14 physical cores, 18 logical processors, using up to 18 threads

Non-default parameters:
TimeLimit  2200

Optimize a model with 47226 rows, 34511 columns and 146698 nonzeros
Model fingerprint: 0x702533a0
Variable types: 17266 continuous, 17245 integer (17245 binary)
Coefficient statistics:
  Matrix range     [1e-04, 8e+04]
  Objective range  [2e-04, 9e-01]
  Bounds range     [1e+00, 1e+03]
  RHS range        [1e+00, 1e+00]
Presolve removed 30782 rows and 21558 columns
Presolve time: 0.30s
Presolved: 16444 rows, 12953 columns, 54665 nonzeros
Variable types: 6410 continuous, 6543 integer (6543 binary)

Root relaxation: objective 5.632510e-03, 2785 iterations, 0.18 seconds (0.36 work units)

    Nodes    |    Current Node    |     Objective Bounds      |     Work
 Expl Unexpl |  Obj  Depth IntInf | Incumbent    BestBd   Gap | It/Node Time

     0     0    0.00563    0   20          -    0.00563      -     -    0s
H    0     0                       4.5945524    0.00563   100%     -    0s
     0     0    0.88321    0   51    4.59455    0.88321  80.8%     -    1s
     0     0    0.88370    0   53    4.59455    0.88370  80.8%     -    1s
     0     0    0.88541    0   46    4.59455    0.88541  80.7%     -    1s
     0     0    0.88576    0   41    4.59455    0.88576  80.7%     -    1s
     0     0    1.57168    0   49    4.59455    1.57168  65.8%     -    1s
     0     0    1.57168    0   48    4.59455    1.57168  65.8%     -    1s
     0     0    1.97963    0   55    4.59455    1.97963  56.9%     -    1s
     0     0    1.97963    0   55    4.59455    1.97963  56.9%     -    1s
     0     0    1.97963    0   59    4.59455    1.97963  56.9%     -    1s
     0     0    1.97963    0   68    4.59455    1.97963  56.9%     -    2s
     0     0    1.97963    0   70    4.59455    1.97963  56.9%     -    2s
     0     2    1.97963    0   70    4.59455    1.97963  56.9%     -    2s
   158    62    3.79739   14   14    4.59455    2.54551  44.6%   144    5s

Cutting planes:
  Cover: 19
  Implied bound: 16
  MIR: 29
  Flow cover: 77
  Flow path: 22
  Inf proof: 2
  Network: 30
  Relax-and-lift: 5

Explored 459 nodes (70475 simplex iterations) in 9.46 seconds (13.18 work units)
Thread count was 18 (of 18 available processors)

Solution count 1: 4.59455 

Optimal solution found (tolerance 1.00e-04)
Best objective 4.594552430205e+00, best bound 4.594552430205e+00, gap 0.0000%
